al
1.0
        4.7000000000         0.0000000000         0.0000000000
        0.0000000000         4.7000000000         0.0000000000
        0.0000000000         0.0000000000         4.7000000000
   Al
    4
Direct
     0.000000000         0.000000000         0.000000000
     0.000000000         0.500000000         0.500000000
     0.500000000         0.000000000         0.500000000
     0.500000000         0.500000000         0.000000000
