&control
    calculation='scf'
    restart_mode='from_scratch',
    pseudo_dir = './',
    outdir='./',
    prefix='al'
    disk_io='high',
    wfcdir='./',
    wf_collect=.true. 
    tprnfor = .true.
    tstress = .true.
 /
 &system
    ibrav=  1, nat=4, ntyp=1, A=4.7, ecutwfc=15.0
    occupations='smearing', smearing='fd', degauss=0.05
    nosym=.true., noinv=.true.
 /
 &electrons
    diagonalization='davidson'
    mixing_beta = 0.7
 /
ATOMIC_SPECIES
 Al  26.98 Al.UPF
ATOMIC_POSITIONS
 Al 0.00 0.00 0.00
 Al 0.50 0.50 0.00
 Al 0.50 0.00 0.50
 Al 0.00 0.50 0.50
K_POINTS automatic
 2 2 2 0 0 0

